/* Problème */

/* Objective function */
min: +x1 +x2 +x3;

/* Constraints */
+x1 +x2 +x3 = 1;
-9 x1 -202 x2 +204 x3 <= 0;
+180 x1 -406 x2 -117 x3 <= 0;
+254 x1 -152 x2 -122 x3 <= 0;
-240 x1 +292 x2 -311 x3 <= 0;

/* Variable bounds */
x1 = 0;
x2 = 0;
x3 = 0;
